Cars = 1..200;
Options = 1..5;
Classes = 1..22;
sequenceMinCapacity = [0, 0, 0, 0, 0];
sequenceMaxCapacity = [1, 2, 1, 2, 1];
sequenceSize = [2, 3, 3, 5, 5];
numOrdered = [3, 2, 34, 6, 16, 43, 5, 13, 1, 2, 4, 13, 4, 1, 2, 17, 16, 1, 2, 2, 5, 8];
classHasOption = [| true,  true, false,  true, false
                  |false, false, false,  true,  true
                  |false, false, false,  true, false
                  | true, false, false,  true, false
                  | true,  true, false, false, false
                  |false,  true, false, false, false
                  |false, false,  true,  true, false
                  |false, false, false, false,  true
                  | true, false,  true, false,  true
                  | true,  true,  true, false, false
                  | true, false,  true, false, false
                  |false,  true, false,  true, false
                  | true, false, false, false,  true
                  | true, false,  true,  true, false
                  |false,  true,  true, false,  true
                  | true, false, false, false, false
                  |false, false,  true, false, false
                  | true,  true,  true,  true, false
                  | true,  true,  true, false,  true
                  |false,  true,  true,  true, false
                  |false,  true,  true, false, false
                  |false,  true, false, false,  true|];
optionOrdering = [5, 4, 3, 1, 2];
